100 10
417 515
666 523
706 433
772 460
461 213
471 216
609 356
359 565
548 631
364 308
147 432
678 412
681 395
93 134
596 465
702 651
186 126
790 633
842 212
903 434
376 654
458 351
684 727
370 427
631 377
604 165
444 676
412 381
452 177
518 629
354 503
682 176
275 375
68 198
442 248
444 817
250 100
210 690
403 663
629 601
512 374
519 483
374 526
723 393
693 269
471 591
586 527
285 72
400 565
559 343
573 676
644 615
239 545
585 379
639 348
770 331
947 369
597 945
359 583
776 232
584 379
834 494
299 580
576 811
254 540
294 669
278 393
483 405
388 496
347 347
776 258
80 314
525 818
316 493
861 342
236 349
806 438
798 581
562 390
634 354
405 270
120 33
779 393
729 255
614 194
707 322
406 274
138 324
394 412
398 825
358 424
507 193
299 307
447 285
317 551
751 778
586 543
730 566
280 475
551 381
